50, 794
34, 29
32, 27
9, 4
28, 23
21, 16
9, 4
12, 7
29, 24
30, 25
40, 35
51, 46
52, 47
50, 45
50, 45
22, 17
21, 16
11, 6
30, 25
20, 15
23, 18
29, 24
47, 42
20, 15
38, 33
34, 29
27, 22
53, 48
16, 11
21, 16
51, 46
20, 15
41, 36
28, 23
36, 31
48, 43
53, 48
50, 45
41, 36
42, 37
37, 32
43, 38
16, 11
21, 16
24, 19
44, 39
30, 25
46, 41
34, 29
13, 8
12, 7
